
Log started (V22.2.0.0) Tue Jun  9 08:33:10 2026

New value for time limit in seconds: 120
New value for default parallel thread count: 4
New value for mixed integer optimality gap tolerance: 0.001
New value for level of mixed integer node display: 2

Problem 'results/InstanceA7_bigm_finsteps123.lp' read.
Read time = 0.00 sec. (0.04 ticks)
Version identifier: 22.2.0.0 | 2026-05-04 | 5dff98e58
CPXPARAM_Threads                                 4
CPXPARAM_TimeLimit                               120
CPXPARAM_MIP_Tolerances_MIPGap                   0.001
Tried aggregator 4 times.
MIP Presolve eliminated 18 rows and 18 columns.
MIP Presolve modified 2392 coefficients.
Aggregator did 104 substitutions.
Reduced MIP has 356 rows, 238 columns, and 964 nonzeros.
Reduced MIP has 140 binaries, 0 generals, 0 SOSs, and 0 indicators.
Presolve time = 0.00 sec. (1.95 ticks)
Found incumbent of value 24.000000 after 0.00 sec. (2.50 ticks)
Probing time = 0.00 sec. (0.69 ticks)
Tried aggregator 1 time.
Detecting symmetries...
MIP Presolve modified 6 coefficients.
Reduced MIP has 356 rows, 238 columns, and 964 nonzeros.
Reduced MIP has 140 binaries, 0 generals, 0 SOSs, and 0 indicators.
Presolve time = 0.00 sec. (0.55 ticks)
Probing time = 0.00 sec. (0.66 ticks)
Clique table members: 226.
MIP emphasis: balance optimality and feasibility.
MIP search method: dynamic search.
Parallel mode: deterministic, using up to 4 threads.
Root relaxation solution time = 0.00 sec. (1.11 ticks)

        Nodes                                         Cuts/
   Node  Left     Objective  IInf  Best Integer    Best Bound    ItCnt     Gap

*     0+    0                           24.0000       10.0000            58.33%
*     0+    0                           23.0000       10.0000            56.52%
*     0+    0                           21.0000       10.0000            52.38%
      0     0       10.0000     5       21.0000       10.0000       98   52.38%
*     0+    0                           10.0000       10.0000             0.00%
      0     0        cutoff             10.0000       10.0000       98    0.00%
Elapsed time = 0.01 sec. (6.88 ticks, tree = 0.01 MB, solutions = 4)

Root node processing (before b&c):
  Real time             =    0.01 sec. (6.90 ticks)
Parallel b&c, 4 threads:
  Real time             =    0.00 sec. (0.00 ticks)
  Sync time (average)   =    0.00 sec.
  Wait time (average)   =    0.00 sec.
                          ------------
Total (root+branch&cut) =    0.01 sec. (6.90 ticks)

Solution pool: 4 solutions saved.

MIP - Integer optimal solution:  Objective =  1.0000000000e+01
Solution time =    0.01 sec.  Iterations = 98  Nodes = 0
Deterministic time = 6.90 ticks  (660.97 ticks/sec)


Incumbent solution written to file 'results/InstanceA7_bigm_finsteps123.sol'.
